SumColouring/JavaBacktracker/RandomInstances/16_0.55_2.col
c File: instances/16_0.55_2.col
c
c Description: Random graph of size 16 vertices and P(0.5499999999999999) of edges between any two vertices.
p col 16 120
e 1 2
e 1 6
e 1 9
e 1 10
e 1 14
e 1 15
e 1 16
e 2 3
e 2 4
e 2 5
e 2 6
e 2 10
e 2 11
e 2 13
e 2 14
e 3 6
e 3 7
e 3 8
e 3 9
e 3 10
e 3 11
e 3 12
e 3 14
e 3 16
e 4 7
e 4 9
e 4 10
e 4 11
e 4 12
e 4 13
e 4 15
e 4 16
e 5 6
e 5 10
e 5 11
e 5 13
e 5 15
e 6 7
e 6 8
e 6 9
e 6 12
e 6 13
e 6 15
e 6 16
e 7 12
e 7 13
e 7 15
e 7 16
e 8 9
e 8 11
e 8 13
e 8 14
e 8 15
e 8 16
e 9 11
e 9 12
e 9 15
e 10 12
e 11 12
e 11 13
e 11 14
e 11 15
e 12 13
e 12 15
e 12 16
e 13 16
e 14 15
e 15 16