SumColouring/MiniZinc model/Experiments/16_0.55_2.col.dzn
% Data file generated from RandomInstances/16_0.55_2.col DIMACS file
size = 16;

chi = 5;

adjacency = [|0,1,0,0,0,1,0,0,1,1,0,0,0,1,1,1,
|1,0,1,1,1,1,0,0,0,1,1,0,1,1,0,0,
|0,1,0,0,0,1,1,1,1,1,1,1,0,1,0,1,
|0,1,0,0,0,0,1,0,1,1,1,1,1,0,1,1,
|0,1,0,0,0,1,0,0,0,1,1,0,1,0,1,0,
|1,1,1,0,1,0,1,1,1,0,0,1,1,0,1,1,
|0,0,1,1,0,1,0,0,0,0,0,1,1,0,1,1,
|0,0,1,0,0,1,0,0,1,0,1,0,1,1,1,1,
|1,0,1,1,0,1,0,1,0,0,1,1,0,0,1,0,
|1,1,1,1,1,0,0,0,0,0,0,1,0,0,0,0,
|0,1,1,1,1,0,0,1,1,0,0,1,1,1,1,0,
|0,0,1,1,0,1,1,0,1,1,1,0,1,0,1,1,
|0,1,0,1,1,1,1,1,0,0,1,1,0,0,0,1,
|1,1,1,0,0,0,0,1,0,0,1,0,0,0,1,0,
|1,0,0,1,1,1,1,1,1,0,1,1,0,1,0,1,
|1,0,1,1,0,1,1,1,0,0,0,1,1,0,1,0,
|];